278892
26,67,70,76,36,14,62,58,59,35,71,5,44,8,82,75,42,61,41,78,83,53,51,69,77,74,25,49,34,12,43,72,11,28,38,33,17,7,2,47,24,19,22,73,46,45,1,80,10,37,13,54,66,20,56,32,31,40,15,55,60,27,16,18,64,29,21,48,52,65,81,23,3,57,30,50,4,79,6,63,39,68,9